problems/csplib-prob056/sonet-models/noch/O2/lingeling/model_3_1-s3ring04-solution000001.eprime-solution
language ESSENCE' 1.0

letting network_ExplicitWithFlagsR5_Flags be [2, 1, 1, 1, 1, 1, 0; int(1..7)]
letting network_ExplicitWithFlagsR5_Values_ExplicitVarSizeWithMarker_Marker be [0, 4, 4, 5, 5, 5, 0; int(1..7)]
letting network_ExplicitWithFlagsR5_Values_ExplicitVarSizeWithMarker_Values be
        [[1, 1, 1, 1, 1; int(1..5)], [5, 7, 9, 10, 1; int(1..5)], [8, 10, 11, 13, 1; int(1..5)],
         [1, 2, 5, 6, 12; int(1..5)], [3, 4, 6, 9, 13; int(1..5)], [3, 6, 8, 11, 12; int(1..5)],
         [1, 1, 1, 1, 1; int(1..5)]; int(1..7)]
