problems/csplib-prob056/sonet-models/noch/O2/lingeling/model_3_1-s3ring04-solution000001.solution
language Essence 1.3

letting network be mset({}, {}, {1, 2, 5, 6, 12}, {3, 4, 6, 9, 13}, {3, 6, 8, 11, 12}, {5, 7, 9, 10}, {8, 10, 11, 13})
$ Here is a simple "visualisation" for the value above.
$ 
$ 
$  1  2  5  6 12
$  3  4  6  9 13
$  3  6  8 11 12
$  5  7  9 10
$  8 10 11 13

